M = 6;
I = 5;
BuyPrice = array2d(1..6, 1..5, [110, 120, 130, 110, 115, 130, 130, 110, 90, 115, 110, 140, 130, 100, 95, 120, 110, 120, 120, 125, 100, 120, 150, 110, 105, 90, 100, 140, 80, 135]);
SellPrice = 150;
IsVegetable = [true, true, false, false, false];
MaxVegRefiningPerMonth = 200;
MaxNonVegRefiningPerMonth = 250;
StorageSize = 1000;
StorageCost = 5;
MaxHardness = 3;
MinHardness = 6;
Hardness = [8.8, 6.1, 2.0, 4.2, 5.0];
InitialAmount = 500;
MinUsage = 20;
Dependencies = array2d(1..5, 1..5, [0, 0, 0, 0, 1, 0, 0, 0, 0, 1, 0, 0, 0, 0, 0, 0, 0, 0, 0, 0, 0, 0, 0, 0, 0]);
